.Version 9.4.2 of ABINIT

 ABINIT is a project of the Universite Catholique de Louvain,
 Corning Inc. and other collaborators, see ~abinit/doc/developers/contributors.txt .
 acknowledgments of the ABINIT effort.

.Starting date : Wed 25 Aug 2021.
- ( at 12h06 )

- input  file    -> gaasgga.abi
- output file    -> gaasgga.abo
- root for input  files -> gaasggai
- root for output files -> gaasggao

 DATASET    1 : space group F-4 3 m (#216); Bravais cF (face-center cubic)
     intxc =       0    ionmov =       0      iscf =       7    lmnmax =      10
     lnmax =      10     mgfft =      32  mpssoang =       3    mqgrid =    3001
     natom =       2  nloc_mem =       1    nspden =       1   nspinor =       1
    nsppol =       1      nsym =      24    n1xccc =    2501    ntypat =       2
    occopt =       1   xclevel =       2
-    mband =          16        mffmem =           1         mkmem =          60
       mpw =        1387          nfft =       32768          nkpt =          60
  Rough estimation (10% accuracy) of disk space for files :

 DATASET    2 : space group F-4 3 m (#216); Bravais cF (face-center cubic)
     intxc =       0    ionmov =       0      iscf =      -2    lmnmax =      10
     lnmax =      10     mgfft =      32  mpssoang =       3    mqgrid =    3001
     natom =       2  nloc_mem =       1    nspden =       1   nspinor =       1
    nsppol =       1      nsym =      24    n1xccc =    2501    ntypat =       2
    occopt =       1   xclevel =       2
-    mband =          16        mffmem =           1         mkmem =          63
       mpw =        1391          nfft =       32768          nkpt =          63
  Rough estimation (10% accuracy) of disk space for files :

------------- Echo of variables that govern the present computation ------------
-
- outvars: echo of selected default values
-   iomode0 =  0 , fftalg0 =112 , wfoptalg0 =  0
-
- outvars: echo of global parameters not present in the input file
-  max_nthreads =    0
-
 -outvars: echo values of preprocessed input variables --------
            acell      1.0000000000E+00  1.0000000000E+00  1.0000000000E+00 Bohr
              amu      6.97230000E+01  7.49215900E+01
      chksymbreak           0
             ecut      2.00000000E+01 Hartree
           enunit1          0
           enunit2          1
-          fftalg         112
           getden1          0
           getden2         -1
             iscf1          7
             iscf2         -2
           istwfk2       0    0    0    0    0    0    0    0    0    0
                         0    0    0    0    0    0    0    0    0    0
                         0    0    0    0    2    0    0    0    0    0
                         0    0    0    0    0    0    0    0    0    0
                         0    0    0    0    0    0    0    0    0    0
                       outvar_i_n : Printing only first  50 k-points.
              ixc          23
           jdtset        1    2
              kpt1     6.25000000E-02  6.25000000E-02  6.25000000E-02
                       1.87500000E-01  6.25000000E-02  6.25000000E-02
                       3.12500000E-01  6.25000000E-02  6.25000000E-02
                       4.37500000E-01  6.25000000E-02  6.25000000E-02
                      -4.37500000E-01  6.25000000E-02  6.25000000E-02
                      -3.12500000E-01  6.25000000E-02  6.25000000E-02
                      -1.87500000E-01  6.25000000E-02  6.25000000E-02
                      -6.25000000E-02  6.25000000E-02  6.25000000E-02
                       1.87500000E-01  1.87500000E-01  6.25000000E-02
                       3.12500000E-01  1.87500000E-01  6.25000000E-02
                       4.37500000E-01  1.87500000E-01  6.25000000E-02
                      -4.37500000E-01  1.87500000E-01  6.25000000E-02
                      -3.12500000E-01  1.87500000E-01  6.25000000E-02
                      -1.87500000E-01  1.87500000E-01  6.25000000E-02
                      -6.25000000E-02  1.87500000E-01  6.25000000E-02
                       3.12500000E-01  3.12500000E-01  6.25000000E-02
                       4.37500000E-01  3.12500000E-01  6.25000000E-02
                      -4.37500000E-01  3.12500000E-01  6.25000000E-02
                      -3.12500000E-01  3.12500000E-01  6.25000000E-02
                      -1.87500000E-01  3.12500000E-01  6.25000000E-02
                      -6.25000000E-02  3.12500000E-01  6.25000000E-02
                       4.37500000E-01  4.37500000E-01  6.25000000E-02
                      -4.37500000E-01  4.37500000E-01  6.25000000E-02
                      -3.12500000E-01  4.37500000E-01  6.25000000E-02
                      -1.87500000E-01  4.37500000E-01  6.25000000E-02
                      -6.25000000E-02  4.37500000E-01  6.25000000E-02
                      -4.37500000E-01 -4.37500000E-01  6.25000000E-02
                      -3.12500000E-01 -4.37500000E-01  6.25000000E-02
                      -1.87500000E-01 -4.37500000E-01  6.25000000E-02
                      -3.12500000E-01 -3.12500000E-01  6.25000000E-02
                      -1.87500000E-01 -3.12500000E-01  6.25000000E-02
                      -1.87500000E-01 -1.87500000E-01  6.25000000E-02
                       1.87500000E-01  1.87500000E-01  1.87500000E-01
                       3.12500000E-01  1.87500000E-01  1.87500000E-01
                       4.37500000E-01  1.87500000E-01  1.87500000E-01
                      -4.37500000E-01  1.87500000E-01  1.87500000E-01
                      -3.12500000E-01  1.87500000E-01  1.87500000E-01
                      -1.87500000E-01  1.87500000E-01  1.87500000E-01
                       3.12500000E-01  3.12500000E-01  1.87500000E-01
                       4.37500000E-01  3.12500000E-01  1.87500000E-01
                      -4.37500000E-01  3.12500000E-01  1.87500000E-01
                      -3.12500000E-01  3.12500000E-01  1.87500000E-01
                      -1.87500000E-01  3.12500000E-01  1.87500000E-01
                       4.37500000E-01  4.37500000E-01  1.87500000E-01
                      -4.37500000E-01  4.37500000E-01  1.87500000E-01
                      -3.12500000E-01  4.37500000E-01  1.87500000E-01
                      -1.87500000E-01  4.37500000E-01  1.87500000E-01
                      -4.37500000E-01 -4.37500000E-01  1.87500000E-01
                      -3.12500000E-01 -4.37500000E-01  1.87500000E-01
                      -3.12500000E-01 -3.12500000E-01  1.87500000E-01
              kpt2    -5.00000000E-01 -5.00000000E-01 -5.00000000E-01
                      -4.79166667E-01 -4.79166667E-01 -4.79166667E-01
                      -4.58333333E-01 -4.58333333E-01 -4.58333333E-01
                      -4.37500000E-01 -4.37500000E-01 -4.37500000E-01
                      -4.16666667E-01 -4.16666667E-01 -4.16666667E-01
                      -3.95833333E-01 -3.95833333E-01 -3.95833333E-01
                      -3.75000000E-01 -3.75000000E-01 -3.75000000E-01
                      -3.54166667E-01 -3.54166667E-01 -3.54166667E-01
                      -3.33333333E-01 -3.33333333E-01 -3.33333333E-01
                      -3.12500000E-01 -3.12500000E-01 -3.12500000E-01
                      -2.91666667E-01 -2.91666667E-01 -2.91666667E-01
                      -2.70833333E-01 -2.70833333E-01 -2.70833333E-01
                      -2.50000000E-01 -2.50000000E-01 -2.50000000E-01
                      -2.29166667E-01 -2.29166667E-01 -2.29166667E-01
                      -2.08333333E-01 -2.08333333E-01 -2.08333333E-01
                      -1.87500000E-01 -1.87500000E-01 -1.87500000E-01
                      -1.66666667E-01 -1.66666667E-01 -1.66666667E-01
                      -1.45833333E-01 -1.45833333E-01 -1.45833333E-01
                      -1.25000000E-01 -1.25000000E-01 -1.25000000E-01
                      -1.04166667E-01 -1.04166667E-01 -1.04166667E-01
                      -8.33333333E-02 -8.33333333E-02 -8.33333333E-02
                      -6.25000000E-02 -6.25000000E-02 -6.25000000E-02
                      -4.16666667E-02 -4.16666667E-02 -4.16666667E-02
                      -2.08333333E-02 -2.08333333E-02 -2.08333333E-02
                       0.00000000E+00  0.00000000E+00  0.00000000E+00
                       1.78571429E-02  0.00000000E+00  1.78571429E-02
                       3.57142857E-02  0.00000000E+00  3.57142857E-02
                       5.35714286E-02  0.00000000E+00  5.35714286E-02
                       7.14285714E-02  0.00000000E+00  7.14285714E-02
                       8.92857143E-02  0.00000000E+00  8.92857143E-02
                       1.07142857E-01  0.00000000E+00  1.07142857E-01
                       1.25000000E-01  0.00000000E+00  1.25000000E-01
                       1.42857143E-01  0.00000000E+00  1.42857143E-01
                       1.60714286E-01  0.00000000E+00  1.60714286E-01
                       1.78571429E-01  0.00000000E+00  1.78571429E-01
                       1.96428571E-01  0.00000000E+00  1.96428571E-01
                       2.14285714E-01  0.00000000E+00  2.14285714E-01
                       2.32142857E-01  0.00000000E+00  2.32142857E-01
                       2.50000000E-01  0.00000000E+00  2.50000000E-01
                       2.67857143E-01  0.00000000E+00  2.67857143E-01
                       2.85714286E-01  0.00000000E+00  2.85714286E-01
                       3.03571429E-01  0.00000000E+00  3.03571429E-01
                       3.21428571E-01  0.00000000E+00  3.21428571E-01
                       3.39285714E-01  0.00000000E+00  3.39285714E-01
                       3.57142857E-01  0.00000000E+00  3.57142857E-01
                       3.75000000E-01  0.00000000E+00  3.75000000E-01
                       3.92857143E-01  0.00000000E+00  3.92857143E-01
                       4.10714286E-01  0.00000000E+00  4.10714286E-01
                       4.28571429E-01  0.00000000E+00  4.28571429E-01
                       4.46428571E-01  0.00000000E+00  4.46428571E-01
                       outvar_i_n : Printing only first  50 k-points.
           kptopt1          1
           kptopt2         -3
         kptrlatt        8    0    0      0    8    0      0    0    8
          kptrlen1     6.14690114E+01
          kptrlen2     3.00000000E+01
P           mkmem1         60
P           mkmem2         63
            natom           2
            nband1         16
            nband2         16
           nbdbuf1          0
           nbdbuf2          2
           ndtset           2
           ndivsm1          0
           ndivsm2         10
            ngfft          32      32      32
             nkpt1         60
             nkpt2         63
             nsym          24
           ntypat           2
              occ      2.000000  2.000000  2.000000  2.000000  0.000000  0.000000
                       0.000000  0.000000  0.000000  0.000000  0.000000  0.000000
                       0.000000  0.000000  0.000000  0.000000
            rprim      6.6542156753E+00  0.0000000000E+00  3.8418132114E+00
                       2.2180718918E+00  6.2736547033E+00  3.8418132114E+00
                       0.0000000000E+00  0.0000000000E+00  7.6836264227E+00
[...]
 kpt#  50, nband= 16, wtk=  1.00000, kpt=  0.4464  0.0000  0.4464 (reduced coord)
  -6.16427   -2.27637    1.66876    1.66876    5.49694    5.87989   13.58399   13.58399
  14.17642   17.07281   17.11530   17.58549   17.58549   19.55029   21.91508   21.96659
 kpt#  51, nband= 16, wtk=  1.00000, kpt=  0.4643  0.0000  0.4643 (reduced coord)
  -6.10184   -2.36839    1.64405    1.64405    5.51079    5.80149   13.75760   13.75760
  14.38081   16.96353   17.28230   17.37801   17.37801   19.32964   22.36405   22.47655
 kpt#  52, nband= 16, wtk=  1.00000, kpt=  0.4821  0.0000  0.4821 (reduced coord)
  -6.06266   -2.42534    1.62920    1.62920    5.52826    5.74510   13.87190   13.87190
  14.51870   16.87856   17.24333   17.24333   17.40258   19.17717   22.76013   22.99574
 kpt#  53, nband= 16, wtk=  1.00000, kpt=  0.5000  0.0000  0.5000 (reduced coord)
  -6.04928   -2.44464    1.62425    1.62425    5.53731    5.72304   13.91206   13.91206
  14.56799   16.84623   17.19637   17.19637   17.44759   19.12142   23.13502   23.46173
 kpt#  54, nband= 16, wtk=  1.00000, kpt=  0.5125  0.0250  0.5125 (reduced coord)
  -6.04884   -2.44263    1.59765    1.62834    5.55923    5.75001   13.84616   13.87907
  14.56995   16.74154   17.04954   17.36971   17.57899   19.17524   22.87125   23.20702
 kpt#  55, nband= 16, wtk=  1.00000, kpt=  0.5250  0.0500  0.5250 (reduced coord)
  -6.04760   -2.43667    1.52196    1.64062    5.60282    5.84904   13.68054   13.78385
  14.53898   16.63717   16.80252   17.68401   17.78810   19.32413   22.56229   22.73429
 kpt#  56, nband= 16, wtk=  1.00000, kpt=  0.5375  0.0750  0.5375 (reduced coord)
  -6.04591   -2.42686    1.40776    1.66101    5.64225    6.03554   13.46228   13.63602
  14.42815   16.52679   16.63237   18.02009   18.03714   19.54060   22.22603   22.35608
 kpt#  57, nband= 16, wtk=  1.00000, kpt=  0.5500  0.1000  0.5500 (reduced coord)
  -6.04428   -2.41342    1.26831    1.68943    5.67966    6.29430   13.21887   13.44751
  14.23400   16.23580   16.72328   18.27435   18.40337   19.79792   21.88656   21.99790
 kpt#  58, nband= 16, wtk=  1.00000, kpt=  0.5625  0.1250  0.5625 (reduced coord)
  -6.04347   -2.39658    1.11645    1.72576    5.72051    6.60719   12.96466   13.22971
  13.98029   15.93735   16.87950   18.54892   18.76418   20.07637   21.55676   21.66421
 kpt#  59, nband= 16, wtk=  1.00000, kpt=  0.5750  0.1500  0.5750 (reduced coord)
  -6.04442   -2.37654    0.96313    1.76982    5.76699    6.96098   12.70812   12.99205
  13.69167   15.63685   17.07132   18.83950   19.09449   20.36259   21.24390   21.37190
 kpt#  60, nband= 16, wtk=  1.00000, kpt=  0.5875  0.1750  0.5875 (reduced coord)
  -6.04826   -2.35344    0.81715    1.82142    5.81977    7.34565   12.45524   12.74185
  13.38505   15.33811   17.27697   19.14118   19.34984   20.64771   20.94599   21.16604
 kpt#  61, nband= 16, wtk=  1.00000, kpt=  0.6000  0.2000  0.6000 (reduced coord)
  -6.05628   -2.32724    0.68535    1.88030    5.87887    7.75277   12.21123   12.48457
  13.07084   15.04391   17.48018   19.44938   19.46384   20.66271   20.92597   21.11136
 kpt#  62, nband= 16, wtk=  1.00000, kpt=  0.6125  0.2250  0.6125 (reduced coord)
  -6.06982   -2.29760    0.57291    1.94617    5.94398    8.17403   11.98180   12.22428
  12.75553   14.75634   17.66651   19.40543   19.76023   20.40235   21.19401   21.22704
 kpt#  63, nband= 16, wtk=  1.00000, kpt=  0.6250  0.2500  0.6250 (reduced coord)
  -6.09029   -2.26382    0.48354    2.01869    6.01455    8.59939   11.77462   11.96400
  12.44367   14.47704   17.82036   19.22571   20.07066   20.17621   21.44340   21.45042

== END DATASET(S) ==============================================================

 -outvars: echo values of variables after computation  --------
            acell      1.0000000000E+00  1.0000000000E+00  1.0000000000E+00 Bohr
              amu      6.97230000E+01  7.49215900E+01
      chksymbreak           0
             ecut      2.00000000E+01 Hartree
           enunit1          0
           enunit2          1
           etotal1    -1.1291226926E+01
            fcart1     6.2154628954E-26  4.3949959615E-26 -3.5884991758E-26
                      -6.2154628954E-26 -4.3949959615E-26  3.5884991758E-26
-          fftalg         112
           getden1          0
           getden2         -1
             iscf1          7
             iscf2         -2
           istwfk2       0    0    0    0    0    0    0    0    0    0
                         0    0    0    0    0    0    0    0    0    0
                         0    0    0    0    2    0    0    0    0    0
                         0    0    0    0    0    0    0    0    0    0
                         0    0    0    0    0    0    0    0    0    0
                       outvar_i_n : Printing only first  50 k-points.
              ixc          23
           jdtset        1    2
              kpt1     6.25000000E-02  6.25000000E-02  6.25000000E-02
                       1.87500000E-01  6.25000000E-02  6.25000000E-02
                       3.12500000E-01  6.25000000E-02  6.25000000E-02
                       4.37500000E-01  6.25000000E-02  6.25000000E-02
                      -4.37500000E-01  6.25000000E-02  6.25000000E-02
                      -3.12500000E-01  6.25000000E-02  6.25000000E-02
                      -1.87500000E-01  6.25000000E-02  6.25000000E-02
                      -6.25000000E-02  6.25000000E-02  6.25000000E-02
                       1.87500000E-01  1.87500000E-01  6.25000000E-02
                       3.12500000E-01  1.87500000E-01  6.25000000E-02
                       4.37500000E-01  1.87500000E-01  6.25000000E-02
                      -4.37500000E-01  1.87500000E-01  6.25000000E-02
                      -3.12500000E-01  1.87500000E-01  6.25000000E-02
                      -1.87500000E-01  1.87500000E-01  6.25000000E-02
                      -6.25000000E-02  1.87500000E-01  6.25000000E-02
                       3.12500000E-01  3.12500000E-01  6.25000000E-02
                       4.37500000E-01  3.12500000E-01  6.25000000E-02
                      -4.37500000E-01  3.12500000E-01  6.25000000E-02
                      -3.12500000E-01  3.12500000E-01  6.25000000E-02
                      -1.87500000E-01  3.12500000E-01  6.25000000E-02
                      -6.25000000E-02  3.12500000E-01  6.25000000E-02
                       4.37500000E-01  4.37500000E-01  6.25000000E-02
                      -4.37500000E-01  4.37500000E-01  6.25000000E-02
                      -3.12500000E-01  4.37500000E-01  6.25000000E-02
                      -1.87500000E-01  4.37500000E-01  6.25000000E-02
                      -6.25000000E-02  4.37500000E-01  6.25000000E-02
                      -4.37500000E-01 -4.37500000E-01  6.25000000E-02
                      -3.12500000E-01 -4.37500000E-01  6.25000000E-02
                      -1.87500000E-01 -4.37500000E-01  6.25000000E-02
                      -3.12500000E-01 -3.12500000E-01  6.25000000E-02
                      -1.87500000E-01 -3.12500000E-01  6.25000000E-02
                      -1.87500000E-01 -1.87500000E-01  6.25000000E-02
                       1.87500000E-01  1.87500000E-01  1.87500000E-01
                       3.12500000E-01  1.87500000E-01  1.87500000E-01
                       4.37500000E-01  1.87500000E-01  1.87500000E-01
                      -4.37500000E-01  1.87500000E-01  1.87500000E-01
                      -3.12500000E-01  1.87500000E-01  1.87500000E-01
                      -1.87500000E-01  1.87500000E-01  1.87500000E-01
                       3.12500000E-01  3.12500000E-01  1.87500000E-01
                       4.37500000E-01  3.12500000E-01  1.87500000E-01
                      -4.37500000E-01  3.12500000E-01  1.87500000E-01
                      -3.12500000E-01  3.12500000E-01  1.87500000E-01
                      -1.87500000E-01  3.12500000E-01  1.87500000E-01
                       4.37500000E-01  4.37500000E-01  1.87500000E-01
                      -4.37500000E-01  4.37500000E-01  1.87500000E-01
                      -3.12500000E-01  4.37500000E-01  1.87500000E-01
                      -1.87500000E-01  4.37500000E-01  1.87500000E-01
                      -4.37500000E-01 -4.37500000E-01  1.87500000E-01
                      -3.12500000E-01 -4.37500000E-01  1.87500000E-01
                      -3.12500000E-01 -3.12500000E-01  1.87500000E-01
              kpt2    -5.00000000E-01 -5.00000000E-01 -5.00000000E-01
                      -4.79166667E-01 -4.79166667E-01 -4.79166667E-01
                      -4.58333333E-01 -4.58333333E-01 -4.58333333E-01
                      -4.37500000E-01 -4.37500000E-01 -4.37500000E-01
                      -4.16666667E-01 -4.16666667E-01 -4.16666667E-01
                      -3.95833333E-01 -3.95833333E-01 -3.95833333E-01
                      -3.75000000E-01 -3.75000000E-01 -3.75000000E-01
                      -3.54166667E-01 -3.54166667E-01 -3.54166667E-01
                      -3.33333333E-01 -3.33333333E-01 -3.33333333E-01
                      -3.12500000E-01 -3.12500000E-01 -3.12500000E-01
                      -2.91666667E-01 -2.91666667E-01 -2.91666667E-01
                      -2.70833333E-01 -2.70833333E-01 -2.70833333E-01
                      -2.50000000E-01 -2.50000000E-01 -2.50000000E-01
                      -2.29166667E-01 -2.29166667E-01 -2.29166667E-01
                      -2.08333333E-01 -2.08333333E-01 -2.08333333E-01
                      -1.87500000E-01 -1.87500000E-01 -1.87500000E-01
                      -1.66666667E-01 -1.66666667E-01 -1.66666667E-01
                      -1.45833333E-01 -1.45833333E-01 -1.45833333E-01
                      -1.25000000E-01 -1.25000000E-01 -1.25000000E-01
                      -1.04166667E-01 -1.04166667E-01 -1.04166667E-01
                      -8.33333333E-02 -8.33333333E-02 -8.33333333E-02
                      -6.25000000E-02 -6.25000000E-02 -6.25000000E-02
                      -4.16666667E-02 -4.16666667E-02 -4.16666667E-02
                      -2.08333333E-02 -2.08333333E-02 -2.08333333E-02
                       0.00000000E+00  0.00000000E+00  0.00000000E+00
                       1.78571429E-02  0.00000000E+00  1.78571429E-02
                       3.57142857E-02  0.00000000E+00  3.57142857E-02
                       5.35714286E-02  0.00000000E+00  5.35714286E-02
                       7.14285714E-02  0.00000000E+00  7.14285714E-02
                       8.92857143E-02  0.00000000E+00  8.92857143E-02
                       1.07142857E-01  0.00000000E+00  1.07142857E-01
                       1.25000000E-01  0.00000000E+00  1.25000000E-01
                       1.42857143E-01  0.00000000E+00  1.42857143E-01
                       1.60714286E-01  0.00000000E+00  1.60714286E-01
                       1.78571429E-01  0.00000000E+00  1.78571429E-01
                       1.96428571E-01  0.00000000E+00  1.96428571E-01
                       2.14285714E-01  0.00000000E+00  2.14285714E-01
                       2.32142857E-01  0.00000000E+00  2.32142857E-01
                       2.50000000E-01  0.00000000E+00  2.50000000E-01
                       2.67857143E-01  0.00000000E+00  2.67857143E-01
                       2.85714286E-01  0.00000000E+00  2.85714286E-01
                       3.03571429E-01  0.00000000E+00  3.03571429E-01
                       3.21428571E-01  0.00000000E+00  3.21428571E-01
                       3.39285714E-01  0.00000000E+00  3.39285714E-01
                       3.57142857E-01  0.00000000E+00  3.57142857E-01
                       3.75000000E-01  0.00000000E+00  3.75000000E-01
                       3.92857143E-01  0.00000000E+00  3.92857143E-01
                       4.10714286E-01  0.00000000E+00  4.10714286E-01
                       4.28571429E-01  0.00000000E+00  4.28571429E-01
                       4.46428571E-01  0.00000000E+00  4.46428571E-01
                       outvar_i_n : Printing only first  50 k-points.
           kptopt1          1
           kptopt2         -3
         kptrlatt        8    0    0      0    8    0      0    0    8
          kptrlen1     6.14690114E+01
          kptrlen2     3.00000000E+01
P           mkmem1         60
P           mkmem2         63
            natom           2
            nband1         16
            nband2         16
           nbdbuf1          0
           nbdbuf2          2
           ndtset           2
           ndivsm1          0
           ndivsm2         10
            ngfft          32      32      32
             nkpt1         60
             nkpt2         63
             nsym          24
           ntypat           2
              occ      2.000000  2.000000  2.000000  2.000000  0.000000  0.000000
                       0.000000  0.000000  0.000000  0.000000  0.000000  0.000000
                       0.000000  0.000000  0.000000  0.000000
            rprim      6.6542156753E+00  0.0000000000E+00  3.8418132114E+00
                       2.2180718918E+00  6.2736547033E+00  3.8418132114E+00
                       0.0000000000E+00  0.0000000000E+00  7.6836264227E+00
           shiftk      5.00000000E-01  5.00000000E-01  5.00000000E-01
          spgroup         216
           strten1     7.2815483061E-05  7.2815483063E-05  7.2815483067E-05
                      -2.0581033152E-15 -2.9106058752E-15 -2.0582065462E-15
           symrel      1  0  0   0  1  0   0  0  1       0 -1  1   0 -1  0   1 -1  0
                      -1  0  0  -1  0  1  -1  1  0       0  1 -1   1  0 -1   0  0 -1
                      -1  0  0  -1  1  0  -1  0  1       0 -1  1   1 -1  0   0 -1  0
                       1  0  0   0  0  1   0  1  0       0  1 -1   0  0 -1   1  0 -1
                      -1  0  1  -1  1  0  -1  0  0       0 -1  0   1 -1  0   0 -1  1
                       1  0 -1   0  0 -1   0  1 -1       0  1  0   0  0  1   1  0  0
                       1  0 -1   0  1 -1   0  0 -1       0 -1  0   0 -1  1   1 -1  0
                      -1  0  1  -1  0  0  -1  1  0       0  1  0   1  0  0   0  0  1
                       0  0 -1   0  1 -1   1  0 -1       1 -1  0   0 -1  1   0 -1  0
                       0  0  1   1  0  0   0  1  0      -1  1  0  -1  0  0  -1  0  1
                       0  0  1   0  1  0   1  0  0       1 -1  0   0 -1  0   0 -1  1
                       0  0 -1   1  0 -1   0  1 -1      -1  1  0  -1  0  1  -1  0  0
           toldfe1     1.00000000E-06 Hartree
           toldfe2     0.00000000E+00 Hartree
           tolwfr1     0.00000000E+00
           tolwfr2     1.00000000E-12
            typat      1  2
              wtk1       0.00391    0.01172    0.01172    0.01172    0.01172    0.01172
                         0.01172    0.01172    0.01172    0.02344    0.02344    0.02344
                         0.02344    0.02344    0.02344    0.01172    0.02344    0.02344
                         0.02344    0.02344    0.02344    0.01172    0.02344    0.02344
                         0.02344    0.02344    0.01172    0.02344    0.02344    0.01172
                         0.02344    0.01172    0.00391    0.01172    0.01172    0.01172
                         0.01172    0.01172    0.01172    0.02344    0.02344    0.02344
                         0.02344    0.01172    0.02344    0.02344    0.02344    0.01172
                         0.02344    0.01172
              wtk2       1.00000    1.00000    1.00000    1.00000    1.00000    1.00000
                         1.00000    1.00000    1.00000    1.00000    1.00000    1.00000
                         1.00000    1.00000    1.00000    1.00000    1.00000    1.00000
                         1.00000    1.00000    1.00000    1.00000    1.00000    1.00000
                         1.00000    1.00000    1.00000    1.00000    1.00000    1.00000
                         1.00000    1.00000    1.00000    1.00000    1.00000    1.00000
                         1.00000    1.00000    1.00000    1.00000    1.00000    1.00000
                         1.00000    1.00000    1.00000    1.00000    1.00000    1.00000
                         1.00000    1.00000
                       outvars : Printing only first  50 k-points.
           xangst      0.0000000000E+00  0.0000000000E+00  0.0000000000E+00
                       3.5212592764E+00  2.4899063127E+00  6.0989999734E+00
            xcart      0.0000000000E+00  0.0000000000E+00  0.0000000000E+00
                       6.6542156753E+00  4.7052410275E+00  1.1525439634E+01
             xred      0.0000000000E+00  0.0000000000E+00  0.0000000000E+00
                       7.5000000000E-01  7.5000000000E-01  7.5000000000E-01
            znucl       31.00000   33.00000

- Timing analysis has been suppressed with timopt=0

 Suggested references for the acknowledgment of ABINIT usage.

 Calculation completed.
.Delivered   5 WARNINGs and   7 COMMENTs to log file.