.Version 9.4.2 of ABINIT

 ABINIT is a project of the Universite Catholique de Louvain,
 Corning Inc. and other collaborators, see ~abinit/doc/developers/contributors.txt .
 acknowledgments of the ABINIT effort.

.Starting date : Wed 25 Aug 2021.
- ( at 11h21 )

- input  file    -> gehyb.abi
- output file    -> gehyb.abo
- root for input  files -> gehybi
- root for output files -> gehybo

 DATASET    1 : space group Fd -3 m (#227); Bravais cF (face-center cubic)
     intxc =       0    ionmov =       0      iscf =       7    lmnmax =       6
     lnmax =       6     mgfft =      32  mpssoang =       3    mqgrid =    3001
     natom =       2  nloc_mem =       1    nspden =       1   nspinor =       1
    nsppol =       1      nsym =      48    n1xccc =       0    ntypat =       1
    occopt =       1   xclevel =       2
-    mband =          16        mffmem =           1         mkmem =          60
       mpw =        1394          nfft =       32768          nkpt =          60
  Rough estimation (10% accuracy) of disk space for files :

 DATASET    2 : space group Fd -3 m (#227); Bravais cF (face-center cubic)
     intxc =       0    ionmov =       0      iscf =      -2    lmnmax =       6
     lnmax =       6     mgfft =      32  mpssoang =       3    mqgrid =    3001
     natom =       2  nloc_mem =       1    nspden =       1   nspinor =       1
    nsppol =       1      nsym =      48    n1xccc =       0    ntypat =       1
    occopt =       1   xclevel =       2
-    mband =          16        mffmem =           1         mkmem =          63
       mpw =        1395          nfft =       32768          nkpt =          63
  Rough estimation (10% accuracy) of disk space for files :

------------- Echo of variables that govern the present computation ------------
-
- outvars: echo of selected default values
-   iomode0 =  0 , fftalg0 =112 , wfoptalg0 =  0
-
- outvars: echo of global parameters not present in the input file
-  max_nthreads =    0
-
 -outvars: echo values of preprocessed input variables --------
            acell      1.0000000000E+00  1.0000000000E+00  1.0000000000E+00 Bohr
              amu      7.26100000E+01
      chksymbreak           0
             ecut      2.00000000E+01 Hartree
           enunit1          0
           enunit2          1
-          fftalg         112
           getden1          0
           getden2         -1
             iscf1          7
             iscf2         -2
           istwfk2       0    0    0    0    0    0    0    0    0    0
                         0    0    0    0    0    0    0    0    0    0
                         0    0    0    0    2    0    0    0    0    0
                         0    0    0    0    0    0    0    0    0    0
                         0    0    0    0    0    0    0    0    0    0
                       outvar_i_n : Printing only first  50 k-points.
              ixc      -12208
           jdtset        1    2
              kpt1     6.25000000E-02  6.25000000E-02  6.25000000E-02
                       1.87500000E-01  6.25000000E-02  6.25000000E-02
                       3.12500000E-01  6.25000000E-02  6.25000000E-02
                       4.37500000E-01  6.25000000E-02  6.25000000E-02
                      -4.37500000E-01  6.25000000E-02  6.25000000E-02
                      -3.12500000E-01  6.25000000E-02  6.25000000E-02
                      -1.87500000E-01  6.25000000E-02  6.25000000E-02
                      -6.25000000E-02  6.25000000E-02  6.25000000E-02
                       1.87500000E-01  1.87500000E-01  6.25000000E-02
                       3.12500000E-01  1.87500000E-01  6.25000000E-02
                       4.37500000E-01  1.87500000E-01  6.25000000E-02
                      -4.37500000E-01  1.87500000E-01  6.25000000E-02
                      -3.12500000E-01  1.87500000E-01  6.25000000E-02
                      -1.87500000E-01  1.87500000E-01  6.25000000E-02
                      -6.25000000E-02  1.87500000E-01  6.25000000E-02
                       3.12500000E-01  3.12500000E-01  6.25000000E-02
                       4.37500000E-01  3.12500000E-01  6.25000000E-02
                      -4.37500000E-01  3.12500000E-01  6.25000000E-02
                      -3.12500000E-01  3.12500000E-01  6.25000000E-02
                      -1.87500000E-01  3.12500000E-01  6.25000000E-02
                      -6.25000000E-02  3.12500000E-01  6.25000000E-02
                       4.37500000E-01  4.37500000E-01  6.25000000E-02
                      -4.37500000E-01  4.37500000E-01  6.25000000E-02
                      -3.12500000E-01  4.37500000E-01  6.25000000E-02
                      -1.87500000E-01  4.37500000E-01  6.25000000E-02
                      -6.25000000E-02  4.37500000E-01  6.25000000E-02
                      -4.37500000E-01 -4.37500000E-01  6.25000000E-02
                      -3.12500000E-01 -4.37500000E-01  6.25000000E-02
                      -1.87500000E-01 -4.37500000E-01  6.25000000E-02
                      -3.12500000E-01 -3.12500000E-01  6.25000000E-02
                      -1.87500000E-01 -3.12500000E-01  6.25000000E-02
                      -1.87500000E-01 -1.87500000E-01  6.25000000E-02
                       1.87500000E-01  1.87500000E-01  1.87500000E-01
                       3.12500000E-01  1.87500000E-01  1.87500000E-01
                       4.37500000E-01  1.87500000E-01  1.87500000E-01
                      -4.37500000E-01  1.87500000E-01  1.87500000E-01
                      -3.12500000E-01  1.87500000E-01  1.87500000E-01
                      -1.87500000E-01  1.87500000E-01  1.87500000E-01
                       3.12500000E-01  3.12500000E-01  1.87500000E-01
                       4.37500000E-01  3.12500000E-01  1.87500000E-01
                      -4.37500000E-01  3.12500000E-01  1.87500000E-01
                      -3.12500000E-01  3.12500000E-01  1.87500000E-01
                      -1.87500000E-01  3.12500000E-01  1.87500000E-01
                       4.37500000E-01  4.37500000E-01  1.87500000E-01
                      -4.37500000E-01  4.37500000E-01  1.87500000E-01
                      -3.12500000E-01  4.37500000E-01  1.87500000E-01
                      -1.87500000E-01  4.37500000E-01  1.87500000E-01
                      -4.37500000E-01 -4.37500000E-01  1.87500000E-01
                      -3.12500000E-01 -4.37500000E-01  1.87500000E-01
                      -3.12500000E-01 -3.12500000E-01  1.87500000E-01
              kpt2    -5.00000000E-01 -5.00000000E-01 -5.00000000E-01
                      -4.79166667E-01 -4.79166667E-01 -4.79166667E-01
                      -4.58333333E-01 -4.58333333E-01 -4.58333333E-01
                      -4.37500000E-01 -4.37500000E-01 -4.37500000E-01
                      -4.16666667E-01 -4.16666667E-01 -4.16666667E-01
                      -3.95833333E-01 -3.95833333E-01 -3.95833333E-01
                      -3.75000000E-01 -3.75000000E-01 -3.75000000E-01
                      -3.54166667E-01 -3.54166667E-01 -3.54166667E-01
                      -3.33333333E-01 -3.33333333E-01 -3.33333333E-01
                      -3.12500000E-01 -3.12500000E-01 -3.12500000E-01
                      -2.91666667E-01 -2.91666667E-01 -2.91666667E-01
                      -2.70833333E-01 -2.70833333E-01 -2.70833333E-01
                      -2.50000000E-01 -2.50000000E-01 -2.50000000E-01
                      -2.29166667E-01 -2.29166667E-01 -2.29166667E-01
                      -2.08333333E-01 -2.08333333E-01 -2.08333333E-01
                      -1.87500000E-01 -1.87500000E-01 -1.87500000E-01
                      -1.66666667E-01 -1.66666667E-01 -1.66666667E-01
                      -1.45833333E-01 -1.45833333E-01 -1.45833333E-01
                      -1.25000000E-01 -1.25000000E-01 -1.25000000E-01
                      -1.04166667E-01 -1.04166667E-01 -1.04166667E-01
                      -8.33333333E-02 -8.33333333E-02 -8.33333333E-02
                      -6.25000000E-02 -6.25000000E-02 -6.25000000E-02
                      -4.16666667E-02 -4.16666667E-02 -4.16666667E-02
                      -2.08333333E-02 -2.08333333E-02 -2.08333333E-02
                       0.00000000E+00  0.00000000E+00  0.00000000E+00
                       1.78571429E-02  0.00000000E+00  1.78571429E-02
                       3.57142857E-02  0.00000000E+00  3.57142857E-02
                       5.35714286E-02  0.00000000E+00  5.35714286E-02
                       7.14285714E-02  0.00000000E+00  7.14285714E-02
                       8.92857143E-02  0.00000000E+00  8.92857143E-02
                       1.07142857E-01  0.00000000E+00  1.07142857E-01
                       1.25000000E-01  0.00000000E+00  1.25000000E-01
                       1.42857143E-01  0.00000000E+00  1.42857143E-01
                       1.60714286E-01  0.00000000E+00  1.60714286E-01
                       1.78571429E-01  0.00000000E+00  1.78571429E-01
                       1.96428571E-01  0.00000000E+00  1.96428571E-01
                       2.14285714E-01  0.00000000E+00  2.14285714E-01
                       2.32142857E-01  0.00000000E+00  2.32142857E-01
                       2.50000000E-01  0.00000000E+00  2.50000000E-01
                       2.67857143E-01  0.00000000E+00  2.67857143E-01
                       2.85714286E-01  0.00000000E+00  2.85714286E-01
                       3.03571429E-01  0.00000000E+00  3.03571429E-01
                       3.21428571E-01  0.00000000E+00  3.21428571E-01
                       3.39285714E-01  0.00000000E+00  3.39285714E-01
                       3.57142857E-01  0.00000000E+00  3.57142857E-01
                       3.75000000E-01  0.00000000E+00  3.75000000E-01
                       3.92857143E-01  0.00000000E+00  3.92857143E-01
                       4.10714286E-01  0.00000000E+00  4.10714286E-01
                       4.28571429E-01  0.00000000E+00  4.28571429E-01
                       4.46428571E-01  0.00000000E+00  4.46428571E-01
                       outvar_i_n : Printing only first  50 k-points.
           kptopt1          1
           kptopt2         -3
         kptrlatt        8    0    0      0    8    0      0    0    8
          kptrlen1     6.16050717E+01
          kptrlen2     3.00000000E+01
P           mkmem1         60
P           mkmem2         63
            natom           2
            nband1         16
            nband2         16
           nbdbuf1          0
           nbdbuf2          2
           ndtset           2
           ndivsm1          0
           ndivsm2         10
            ngfft          32      32      32
             nkpt1         60
             nkpt2         63
             nsym          48
           ntypat           1
              occ      2.000000  2.000000  2.000000  2.000000  0.000000  0.000000
                       0.000000  0.000000  0.000000  0.000000  0.000000  0.000000
                       0.000000  0.000000  0.000000  0.000000
          prtkden           1
            rprim      6.6689446327E+00  0.0000000000E+00  3.8503169789E+00
                       2.2229815442E+00  6.2875412976E+00  3.8503169789E+00
                       0.0000000000E+00  0.0000000000E+00  7.7006339579E+00
[...]
  11.73959   13.32197   16.63558   18.38398   18.80761   19.42906   19.47479   20.12055
 kpt#  63, nband= 16, wtk=  1.00000, kpt=  0.6250  0.2500  0.6250 (reduced coord)
  -5.72779   -4.69408   -0.62982    0.83020    4.91530    7.63959   10.63943   10.77419
  11.40565   13.04891   16.81629   18.23284   19.10390   19.22977   19.71674   20.39472

== END DATASET(S) ==============================================================

 -outvars: echo values of variables after computation  --------
            acell      1.0000000000E+00  1.0000000000E+00  1.0000000000E+00 Bohr
              amu      7.26100000E+01
      chksymbreak           0
             ecut      2.00000000E+01 Hartree
           enunit1          0
           enunit2          1
           etotal1    -6.0250716611E+00
            fcart1    -9.0845734756E-29  3.2118817544E-29  5.2449809416E-29
                       9.0845734756E-29 -3.2118817544E-29 -5.2449809416E-29
-          fftalg         112
           getden1          0
           getden2         -1
             iscf1          7
             iscf2         -2
           istwfk2       0    0    0    0    0    0    0    0    0    0
                         0    0    0    0    0    0    0    0    0    0
                         0    0    0    0    2    0    0    0    0    0
                         0    0    0    0    0    0    0    0    0    0
                         0    0    0    0    0    0    0    0    0    0
                       outvar_i_n : Printing only first  50 k-points.
              ixc      -12208
           jdtset        1    2
              kpt1     6.25000000E-02  6.25000000E-02  6.25000000E-02
                       1.87500000E-01  6.25000000E-02  6.25000000E-02
                       3.12500000E-01  6.25000000E-02  6.25000000E-02
                       4.37500000E-01  6.25000000E-02  6.25000000E-02
                      -4.37500000E-01  6.25000000E-02  6.25000000E-02
                      -3.12500000E-01  6.25000000E-02  6.25000000E-02
                      -1.87500000E-01  6.25000000E-02  6.25000000E-02
                      -6.25000000E-02  6.25000000E-02  6.25000000E-02
                       1.87500000E-01  1.87500000E-01  6.25000000E-02
                       3.12500000E-01  1.87500000E-01  6.25000000E-02
                       4.37500000E-01  1.87500000E-01  6.25000000E-02
                      -4.37500000E-01  1.87500000E-01  6.25000000E-02
                      -3.12500000E-01  1.87500000E-01  6.25000000E-02
                      -1.87500000E-01  1.87500000E-01  6.25000000E-02
                      -6.25000000E-02  1.87500000E-01  6.25000000E-02
                       3.12500000E-01  3.12500000E-01  6.25000000E-02
                       4.37500000E-01  3.12500000E-01  6.25000000E-02
                      -4.37500000E-01  3.12500000E-01  6.25000000E-02
                      -3.12500000E-01  3.12500000E-01  6.25000000E-02
                      -1.87500000E-01  3.12500000E-01  6.25000000E-02
                      -6.25000000E-02  3.12500000E-01  6.25000000E-02
                       4.37500000E-01  4.37500000E-01  6.25000000E-02
                      -4.37500000E-01  4.37500000E-01  6.25000000E-02
                      -3.12500000E-01  4.37500000E-01  6.25000000E-02
                      -1.87500000E-01  4.37500000E-01  6.25000000E-02
                      -6.25000000E-02  4.37500000E-01  6.25000000E-02
                      -4.37500000E-01 -4.37500000E-01  6.25000000E-02
                      -3.12500000E-01 -4.37500000E-01  6.25000000E-02
                      -1.87500000E-01 -4.37500000E-01  6.25000000E-02
                      -3.12500000E-01 -3.12500000E-01  6.25000000E-02
                      -1.87500000E-01 -3.12500000E-01  6.25000000E-02
                      -1.87500000E-01 -1.87500000E-01  6.25000000E-02
                       1.87500000E-01  1.87500000E-01  1.87500000E-01
                       3.12500000E-01  1.87500000E-01  1.87500000E-01
                       4.37500000E-01  1.87500000E-01  1.87500000E-01
                      -4.37500000E-01  1.87500000E-01  1.87500000E-01
                      -3.12500000E-01  1.87500000E-01  1.87500000E-01
                      -1.87500000E-01  1.87500000E-01  1.87500000E-01
                       3.12500000E-01  3.12500000E-01  1.87500000E-01
                       4.37500000E-01  3.12500000E-01  1.87500000E-01
                      -4.37500000E-01  3.12500000E-01  1.87500000E-01
                      -3.12500000E-01  3.12500000E-01  1.87500000E-01
                      -1.87500000E-01  3.12500000E-01  1.87500000E-01
                       4.37500000E-01  4.37500000E-01  1.87500000E-01
                      -4.37500000E-01  4.37500000E-01  1.87500000E-01
                      -3.12500000E-01  4.37500000E-01  1.87500000E-01
                      -1.87500000E-01  4.37500000E-01  1.87500000E-01
                      -4.37500000E-01 -4.37500000E-01  1.87500000E-01
                      -3.12500000E-01 -4.37500000E-01  1.87500000E-01
                      -3.12500000E-01 -3.12500000E-01  1.87500000E-01
              kpt2    -5.00000000E-01 -5.00000000E-01 -5.00000000E-01
                      -4.79166667E-01 -4.79166667E-01 -4.79166667E-01
                      -4.58333333E-01 -4.58333333E-01 -4.58333333E-01
                      -4.37500000E-01 -4.37500000E-01 -4.37500000E-01
                      -4.16666667E-01 -4.16666667E-01 -4.16666667E-01
                      -3.95833333E-01 -3.95833333E-01 -3.95833333E-01
                      -3.75000000E-01 -3.75000000E-01 -3.75000000E-01
                      -3.54166667E-01 -3.54166667E-01 -3.54166667E-01
                      -3.33333333E-01 -3.33333333E-01 -3.33333333E-01
                      -3.12500000E-01 -3.12500000E-01 -3.12500000E-01
                      -2.91666667E-01 -2.91666667E-01 -2.91666667E-01
                      -2.70833333E-01 -2.70833333E-01 -2.70833333E-01
                      -2.50000000E-01 -2.50000000E-01 -2.50000000E-01
                      -2.29166667E-01 -2.29166667E-01 -2.29166667E-01
                      -2.08333333E-01 -2.08333333E-01 -2.08333333E-01
                      -1.87500000E-01 -1.87500000E-01 -1.87500000E-01
                      -1.66666667E-01 -1.66666667E-01 -1.66666667E-01
                      -1.45833333E-01 -1.45833333E-01 -1.45833333E-01
                      -1.25000000E-01 -1.25000000E-01 -1.25000000E-01
                      -1.04166667E-01 -1.04166667E-01 -1.04166667E-01
                      -8.33333333E-02 -8.33333333E-02 -8.33333333E-02
                      -6.25000000E-02 -6.25000000E-02 -6.25000000E-02
                      -4.16666667E-02 -4.16666667E-02 -4.16666667E-02
                      -2.08333333E-02 -2.08333333E-02 -2.08333333E-02
                       0.00000000E+00  0.00000000E+00  0.00000000E+00
                       1.78571429E-02  0.00000000E+00  1.78571429E-02
                       3.57142857E-02  0.00000000E+00  3.57142857E-02
                       5.35714286E-02  0.00000000E+00  5.35714286E-02
                       7.14285714E-02  0.00000000E+00  7.14285714E-02
                       8.92857143E-02  0.00000000E+00  8.92857143E-02
                       1.07142857E-01  0.00000000E+00  1.07142857E-01
                       1.25000000E-01  0.00000000E+00  1.25000000E-01
                       1.42857143E-01  0.00000000E+00  1.42857143E-01
                       1.60714286E-01  0.00000000E+00  1.60714286E-01
                       1.78571429E-01  0.00000000E+00  1.78571429E-01
                       1.96428571E-01  0.00000000E+00  1.96428571E-01
                       2.14285714E-01  0.00000000E+00  2.14285714E-01
                       2.32142857E-01  0.00000000E+00  2.32142857E-01
                       2.50000000E-01  0.00000000E+00  2.50000000E-01
                       2.67857143E-01  0.00000000E+00  2.67857143E-01
                       2.85714286E-01  0.00000000E+00  2.85714286E-01
                       3.03571429E-01  0.00000000E+00  3.03571429E-01
                       3.21428571E-01  0.00000000E+00  3.21428571E-01
                       3.39285714E-01  0.00000000E+00  3.39285714E-01
                       3.57142857E-01  0.00000000E+00  3.57142857E-01
                       3.75000000E-01  0.00000000E+00  3.75000000E-01
                       3.92857143E-01  0.00000000E+00  3.92857143E-01
                       4.10714286E-01  0.00000000E+00  4.10714286E-01
                       4.28571429E-01  0.00000000E+00  4.28571429E-01
                       4.46428571E-01  0.00000000E+00  4.46428571E-01
                       outvar_i_n : Printing only first  50 k-points.
           kptopt1          1
           kptopt2         -3
         kptrlatt        8    0    0      0    8    0      0    0    8
          kptrlen1     6.16050717E+01
          kptrlen2     3.00000000E+01
P           mkmem1         60
P           mkmem2         63
            natom           2
            nband1         16
            nband2         16
           nbdbuf1          0
           nbdbuf2          2
           ndtset           2
           ndivsm1          0
           ndivsm2         10
            ngfft          32      32      32
             nkpt1         60
             nkpt2         63
             nsym          48
           ntypat           1
              occ      2.000000  2.000000  2.000000  2.000000  0.000000  0.000000
                       0.000000  0.000000  0.000000  0.000000  0.000000  0.000000
                       0.000000  0.000000  0.000000  0.000000
          prtkden           1
            rprim      6.6689446327E+00  0.0000000000E+00  3.8503169789E+00
                       2.2229815442E+00  6.2875412976E+00  3.8503169789E+00
                       0.0000000000E+00  0.0000000000E+00  7.7006339579E+00
           shiftk      5.00000000E-01  5.00000000E-01  5.00000000E-01
          spgroup         227
           strten1     6.8838644890E-03  6.8838644888E-03  6.8838644888E-03
                       4.2456418576E-14  6.0043350249E-14  4.2457507974E-14
           symrel      1  0  0   0  1  0   0  0  1      -1  0  0   0 -1  0   0  0 -1
                       0 -1  1   0 -1  0   1 -1  0       0  1 -1   0  1  0  -1  1  0
                      -1  0  0  -1  0  1  -1  1  0       1  0  0   1  0 -1   1 -1  0
                       0  1 -1   1  0 -1   0  0 -1       0 -1  1  -1  0  1   0  0  1
                      -1  0  0  -1  1  0  -1  0  1       1  0  0   1 -1  0   1  0 -1
                       0 -1  1   1 -1  0   0 -1  0       0  1 -1  -1  1  0   0  1  0
                       1  0  0   0  0  1   0  1  0      -1  0  0   0  0 -1   0 -1  0
                       0  1 -1   0  0 -1   1  0 -1       0 -1  1   0  0  1  -1  0  1
                      -1  0  1  -1  1  0  -1  0  0       1  0 -1   1 -1  0   1  0  0
                       0 -1  0   1 -1  0   0 -1  1       0  1  0  -1  1  0   0  1 -1
                       1  0 -1   0  0 -1   0  1 -1      -1  0  1   0  0  1   0 -1  1
                       0  1  0   0  0  1   1  0  0       0 -1  0   0  0 -1  -1  0  0
                       1  0 -1   0  1 -1   0  0 -1      -1  0  1   0 -1  1   0  0  1
                       0 -1  0   0 -1  1   1 -1  0       0  1  0   0  1 -1  -1  1  0
                      -1  0  1  -1  0  0  -1  1  0       1  0 -1   1  0  0   1 -1  0
                       0  1  0   1  0  0   0  0  1       0 -1  0  -1  0  0   0  0 -1
                       0  0 -1   0  1 -1   1  0 -1       0  0  1   0 -1  1  -1  0  1
                       1 -1  0   0 -1  1   0 -1  0      -1  1  0   0  1 -1   0  1  0
                       0  0  1   1  0  0   0  1  0       0  0 -1  -1  0  0   0 -1  0
                      -1  1  0  -1  0  0  -1  0  1       1 -1  0   1  0  0   1  0 -1
                       0  0  1   0  1  0   1  0  0       0  0 -1   0 -1  0  -1  0  0
                       1 -1  0   0 -1  0   0 -1  1      -1  1  0   0  1  0   0  1 -1
                       0  0 -1   1  0 -1   0  1 -1       0  0  1  -1  0  1   0 -1  1
                      -1  1  0  -1  0  1  -1  0  0       1 -1  0   1  0 -1   1  0  0
            tnons      0.0000000  0.0000000  0.0000000    -0.2500000 -0.2500000 -0.2500000
                       0.0000000  0.0000000  0.0000000    -0.2500000 -0.2500000 -0.2500000
                       0.0000000  0.0000000  0.0000000    -0.2500000 -0.2500000 -0.2500000
                       0.0000000  0.0000000  0.0000000    -0.2500000 -0.2500000 -0.2500000
                       0.0000000  0.0000000  0.0000000    -0.2500000 -0.2500000 -0.2500000
                       0.0000000  0.0000000  0.0000000    -0.2500000 -0.2500000 -0.2500000
                       0.0000000  0.0000000  0.0000000    -0.2500000 -0.2500000 -0.2500000
                       0.0000000  0.0000000  0.0000000    -0.2500000 -0.2500000 -0.2500000
                       0.0000000  0.0000000  0.0000000    -0.2500000 -0.2500000 -0.2500000
                       0.0000000  0.0000000  0.0000000    -0.2500000 -0.2500000 -0.2500000
                       0.0000000  0.0000000  0.0000000    -0.2500000 -0.2500000 -0.2500000
                       0.0000000  0.0000000  0.0000000    -0.2500000 -0.2500000 -0.2500000
                       0.0000000  0.0000000  0.0000000    -0.2500000 -0.2500000 -0.2500000
                       0.0000000  0.0000000  0.0000000    -0.2500000 -0.2500000 -0.2500000
                       0.0000000  0.0000000  0.0000000    -0.2500000 -0.2500000 -0.2500000
                       0.0000000  0.0000000  0.0000000    -0.2500000 -0.2500000 -0.2500000
                       0.0000000  0.0000000  0.0000000    -0.2500000 -0.2500000 -0.2500000
                       0.0000000  0.0000000  0.0000000    -0.2500000 -0.2500000 -0.2500000
                       0.0000000  0.0000000  0.0000000    -0.2500000 -0.2500000 -0.2500000
                       0.0000000  0.0000000  0.0000000    -0.2500000 -0.2500000 -0.2500000
                       0.0000000  0.0000000  0.0000000    -0.2500000 -0.2500000 -0.2500000
                       0.0000000  0.0000000  0.0000000    -0.2500000 -0.2500000 -0.2500000
                       0.0000000  0.0000000  0.0000000    -0.2500000 -0.2500000 -0.2500000
                       0.0000000  0.0000000  0.0000000    -0.2500000 -0.2500000 -0.2500000
           toldfe1     1.00000000E-06 Hartree
           toldfe2     0.00000000E+00 Hartree
           tolwfr1     0.00000000E+00
           tolwfr2     1.00000000E-12
            typat      1  1
          usekden           1
              wtk1       0.00391    0.01172    0.01172    0.01172    0.01172    0.01172
                         0.01172    0.01172    0.01172    0.02344    0.02344    0.02344
                         0.02344    0.02344    0.02344    0.01172    0.02344    0.02344
                         0.02344    0.02344    0.02344    0.01172    0.02344    0.02344
                         0.02344    0.02344    0.01172    0.02344    0.02344    0.01172
                         0.02344    0.01172    0.00391    0.01172    0.01172    0.01172
                         0.01172    0.01172    0.01172    0.02344    0.02344    0.02344
                         0.02344    0.01172    0.02344    0.02344    0.02344    0.01172
                         0.02344    0.01172
              wtk2       1.00000    1.00000    1.00000    1.00000    1.00000    1.00000
                         1.00000    1.00000    1.00000    1.00000    1.00000    1.00000
                         1.00000    1.00000    1.00000    1.00000    1.00000    1.00000
                         1.00000    1.00000    1.00000    1.00000    1.00000    1.00000
                         1.00000    1.00000    1.00000    1.00000    1.00000    1.00000
                         1.00000    1.00000    1.00000    1.00000    1.00000    1.00000
                         1.00000    1.00000    1.00000    1.00000    1.00000    1.00000
                         1.00000    1.00000    1.00000    1.00000    1.00000    1.00000
                         1.00000    1.00000
                       outvars : Printing only first  50 k-points.
           xangst      0.0000000000E+00  0.0000000000E+00  0.0000000000E+00
                       3.5290535050E+00  2.4954176646E+00  6.1124999733E+00
            xcart      0.0000000000E+00  0.0000000000E+00  0.0000000000E+00
                       6.6689446327E+00  4.7156559732E+00  1.1550950937E+01
             xred      0.0000000000E+00  0.0000000000E+00  0.0000000000E+00
                       7.5000000000E-01  7.5000000000E-01  7.5000000000E-01
            znucl       32.00000

- Timing analysis has been suppressed with timopt=0

 Suggested references for the acknowledgment of ABINIT usage.

 Calculation completed.
.Delivered   3 WARNINGs and  10 COMMENTs to log file.